25 58 146
1 19 4
1 25 4
2 7 3
2 8 3
2 12 4
2 14 3
2 18 3
2 21 5
2 25 3
3 12 3
3 13 5
3 19 2
4 5 1
4 7 5
4 19 4
4 20 2
5 9 2
5 10 2
5 15 2
5 18 4
5 19 1
5 24 5
6 7 4
6 9 5
6 15 1
6 19 3
6 20 1
7 11 2
7 20 4
8 11 5
8 16 2
8 18 5
8 20 5
8 23 1
8 24 1
9 14 1
10 14 1
10 15 3
10 18 5
10 23 2
11 14 2
11 25 3
12 13 4
12 14 2
12 21 4
12 25 1
13 16 3
13 18 1
13 22 5
13 24 4
15 20 5
15 21 2
17 20 1
17 21 4
19 22 4
20 23 2
21 25 4
24 25 4
